(set-info :smt-lib-version 2.6)
(set-logic LIA)
(set-info
  :source |
 Generated by PSyCO 0.1
 More info in N. P. Lopes and J. Monteiro. Weakest Precondition Synthesis for
 Compiler Optimizations, VMCAI'14.
|)
(set-info :category "industrial")
(set-info :status sat)
(declare-fun R_E1_V6 () Bool)
(declare-fun W_S1_V6 () Bool)
(declare-fun R_E2_V6 () Bool)
(declare-fun W_S1_V3 () Bool)
(declare-fun W_S1_V1 () Bool)
(declare-fun R_S1_V6 () Bool)
(declare-fun R_S1_V4 () Bool)
(declare-fun R_S1_V5 () Bool)
(declare-fun R_S1_V2 () Bool)
(declare-fun R_S1_V3 () Bool)
(declare-fun R_S1_V1 () Bool)
(declare-fun R_E2_V4 () Bool)
(declare-fun R_E2_V2 () Bool)
(declare-fun R_E1_V5 () Bool)
(declare-fun DISJ_W_S1_R_S1 () Bool)
(declare-fun R_E2_V5 () Bool)
(declare-fun W_S1_V5 () Bool)
(declare-fun W_S1_V4 () Bool)
(declare-fun W_S1_V2 () Bool)
(declare-fun R_E1_V3 () Bool)
(declare-fun R_E1_V1 () Bool)
(declare-fun R_E2_V3 () Bool)
(declare-fun R_E2_V1 () Bool)
(declare-fun DISJ_W_S1_R_E1 () Bool)
(declare-fun DISJ_W_S1_R_E2 () Bool)
(assert
 (let
 (($x63605
   (forall
    ((V2_0 Int) (V5_0 Int) 
     (V4_0 Int) (V6_0 Int) 
     (MW_S1_V1 Bool) (MW_S1_V3 Bool) 
     (MW_S1_V2 Bool) (MW_S1_V5 Bool) 
     (MW_S1_V4 Bool) (MW_S1_V6 Bool) 
     (S1_V1_!8171 Int) (S1_V1_!8178 Int) 
     (S1_V1_!8187 Int) (S1_V1_!8193 Int) 
     (S1_V3_!8172 Int) (S1_V3_!8179 Int) 
     (S1_V3_!8188 Int) (S1_V3_!8194 Int) 
     (S1_V2_!8173 Int) (S1_V2_!8180 Int) 
     (S1_V2_!8189 Int) (S1_V2_!8195 Int) 
     (E1_!8168 Int) (E1_!8184 Int) 
     (E1_!8186 Int) (S1_V5_!8174 Int) 
     (S1_V5_!8181 Int) (S1_V5_!8190 Int) 
     (S1_V5_!8196 Int) (E2_!8169 Int) 
     (E2_!8170 Int) (E2_!8177 Int) 
     (E2_!8185 Int) (S1_V4_!8175 Int) 
     (S1_V4_!8182 Int) (S1_V4_!8191 Int) 
     (S1_V4_!8197 Int) (S1_V6_!8176 Int) 
     (S1_V6_!8183 Int) (S1_V6_!8192 Int) 
     (S1_V6_!8198 Int))
    (let ((?x64737 (ite MW_S1_V1 S1_V1_!8187 E1_!8186)))
    (let ((?x63809 (+ 1 ?x64737)))
    (let ((?x63701 (ite MW_S1_V1 S1_V1_!8193 ?x63809)))
    (let ((?x60175 (ite MW_S1_V1 S1_V1_!8171 E1_!8168)))
    (let ((?x63851 (+ 1 ?x60175)))
    (let ((?x60271 (ite MW_S1_V1 S1_V1_!8178 ?x63851)))
    (let
    (($x63950
      (and (= ?x60271 ?x63701)
      (= (ite MW_S1_V3 S1_V3_!8179 E2_!8177)
      (ite MW_S1_V3 S1_V3_!8194 E2_!8185))
      (= (ite MW_S1_V2 S1_V2_!8180 V2_0) (ite MW_S1_V2 S1_V2_!8195 V2_0))
      (= (ite MW_S1_V5 S1_V5_!8181 V5_0) (ite MW_S1_V5 S1_V5_!8196 V5_0))
      (= (ite MW_S1_V4 S1_V4_!8182 V4_0) (ite MW_S1_V4 S1_V4_!8197 V4_0))
      (= (ite MW_S1_V6 S1_V6_!8183 V6_0) (ite MW_S1_V6 S1_V6_!8198 V6_0)))))
    (let
    (($x63128
      (and (not (<= V4_0 E2_!8169)) 
      (not (<= V2_0 E1_!8168)) 
      (not (<= V4_0 E2_!8170))
      (>= (ite MW_S1_V3 S1_V3_!8172 E2_!8170)
      (+ (- 1) (ite MW_S1_V4 S1_V4_!8175 V4_0)))
      (not (<= (ite MW_S1_V2 S1_V2_!8173 V2_0) ?x63851))
      (not (<= (ite MW_S1_V4 S1_V4_!8175 V4_0) E2_!8177))
      (>= (ite MW_S1_V3 S1_V3_!8179 E2_!8177)
      (+ (- 1) (ite MW_S1_V4 S1_V4_!8182 V4_0)))
      (>= ?x60271 (+ (- 1) (ite MW_S1_V2 S1_V2_!8180 V2_0)))
      (not (<= V2_0 E1_!8184)) 
      (not (<= V4_0 E2_!8185)) 
      (not (<= V2_0 E1_!8186))
      (not (<= (ite MW_S1_V2 S1_V2_!8189 V2_0) ?x63809))
      (>= ?x63701 (+ (- 1) (ite MW_S1_V2 S1_V2_!8195 V2_0)))
      (>= (ite MW_S1_V3 S1_V3_!8194 E2_!8185)
      (+ (- 1) (ite MW_S1_V4 S1_V4_!8197 V4_0))))))
    (let (($x207 (not R_S1_V6)))
    (let (($x62549 (or $x207 (= (ite MW_S1_V6 S1_V6_!8192 V6_0) V6_0))))
    (let (($x205 (not R_S1_V4)))
    (let (($x62351 (or $x205 (= (ite MW_S1_V4 S1_V4_!8191 V4_0) V4_0))))
    (let (($x203 (not R_S1_V5)))
    (let (($x61172 (or $x203 (= (ite MW_S1_V5 S1_V5_!8190 V5_0) V5_0))))
    (let (($x201 (not R_S1_V2)))
    (let (($x64716 (or $x201 (= (ite MW_S1_V2 S1_V2_!8189 V2_0) V2_0))))
    (let
    (($x63352
      (and (or (not R_S1_V1) (= ?x64737 (+ (- 1) E1_!8186)))
      (or (not R_S1_V3) (= (ite MW_S1_V3 S1_V3_!8188 E2_!8185) E2_!8185))
      $x64716 $x61172 $x62351 $x62549)))
    (let
    (($x62853
      (and (or (not R_S1_V1) (= ?x64737 ?x60175))
      (or (not R_S1_V3) (= (ite MW_S1_V3 S1_V3_!8188 E2_!8185) E2_!8177))
      (or $x201
      (= (ite MW_S1_V2 S1_V2_!8189 V2_0) (ite MW_S1_V2 S1_V2_!8173 V2_0)))
      (or $x203
      (= (ite MW_S1_V5 S1_V5_!8190 V5_0) (ite MW_S1_V5 S1_V5_!8174 V5_0)))
      (or $x205
      (= (ite MW_S1_V4 S1_V4_!8191 V4_0) (ite MW_S1_V4 S1_V4_!8175 V4_0)))
      (or $x207
      (= (ite MW_S1_V6 S1_V6_!8192 V6_0) (ite MW_S1_V6 S1_V6_!8176 V6_0))))))
    (let (($x63208 (not $x62853)))
    (let
    (($x61018
      (and (or (not R_S1_V1) (= ?x64737 (+ (- 1) E1_!8168)))
      (or (not R_S1_V3) (= (ite MW_S1_V3 S1_V3_!8188 E2_!8185) E2_!8170))
      $x64716 $x61172 $x62351 $x62549)))
    (let (($x63691 (or $x207 (= V6_0 (ite MW_S1_V6 S1_V6_!8176 V6_0)))))
    (let (($x62797 (or $x205 (= V4_0 (ite MW_S1_V4 S1_V4_!8175 V4_0)))))
    (let (($x61265 (or $x203 (= V5_0 (ite MW_S1_V5 S1_V5_!8174 V5_0)))))
    (let (($x62917 (or $x201 (= V2_0 (ite MW_S1_V2 S1_V2_!8173 V2_0)))))
    (let
    (($x62292
      (and (or (not R_S1_V1) (= E1_!8186 ?x63851))
      (or (not R_S1_V3) (= E2_!8185 E2_!8177)) $x62917 $x61265 $x62797
      $x63691)))
    (let (($x62382 (not $x62292)))
    (let
    (($x63213
      (and (or (not R_S1_V1) (= E1_!8186 E1_!8168))
      (or (not R_S1_V3) (= E2_!8185 E2_!8170)))))
    (let
    (($x59933
      (and (or (not R_S1_V1) (= E1_!8168 ?x63851))
      (or (not R_S1_V3) (= E2_!8170 E2_!8177)) $x62917 $x61265 $x62797
      $x63691)))
    (let (($x64446 (not $x59933)))
    (let (($x63954 (or $x207 (= V6_0 (ite MW_S1_V6 S1_V6_!8192 V6_0)))))
    (let (($x60207 (or $x205 (= V4_0 (ite MW_S1_V4 S1_V4_!8191 V4_0)))))
    (let (($x63191 (or $x203 (= V5_0 (ite MW_S1_V5 S1_V5_!8190 V5_0)))))
    (let (($x62877 (or $x201 (= V2_0 (ite MW_S1_V2 S1_V2_!8189 V2_0)))))
    (let
    (($x63212
      (and (or (not R_S1_V1) (= E1_!8186 ?x63809))
      (or (not R_S1_V3) (= E2_!8185 (ite MW_S1_V3 S1_V3_!8188 E2_!8185)))
      $x62877 $x63191 $x60207 $x63954)))
    (let (($x64345 (not $x63212)))
    (let
    (($x63803
      (and (or (not R_S1_V1) (= E1_!8168 ?x63809))
      (or (not R_S1_V3) (= E2_!8170 (ite MW_S1_V3 S1_V3_!8188 E2_!8185)))
      $x62877 $x63191 $x60207 $x63954)))
    (let (($x63589 (not $x63803)))
    (let
    (($x62712
      (and (or (not R_S1_V1) (= E1_!8168 E1_!8186))
      (or (not R_S1_V3) (= E2_!8170 E2_!8185)))))
    (let (($x60118 (not $x62712)))
    (let (($x59863 (= E2_!8185 E2_!8177)))
    (let
    (($x64630
      (and (or (not R_E2_V2) (= V2_0 (ite MW_S1_V2 S1_V2_!8173 V2_0)))
      (or (not R_E2_V4) (= V4_0 (ite MW_S1_V4 S1_V4_!8175 V4_0)))
      (or (not R_E2_V6) (= V6_0 (ite MW_S1_V6 S1_V6_!8176 V6_0))))))
    (let (($x62350 (= E2_!8185 E2_!8170)))
    (let (($x63623 (= E2_!8177 E2_!8170)))
    (let
    (($x63453
      (and (or (not R_E2_V2) (= (ite MW_S1_V2 S1_V2_!8173 V2_0) V2_0))
      (or (not R_E2_V4) (= (ite MW_S1_V4 S1_V4_!8175 V4_0) V4_0))
      (or (not R_E2_V6) (= (ite MW_S1_V6 S1_V6_!8176 V6_0) V6_0)))))
    (let (($x62955 (= E1_!8186 E1_!8168)))
    (let
    (($x63450
      (and (or (not R_S1_V1) (= ?x60175 ?x64737))
      (or (not R_S1_V3) (= E2_!8177 (ite MW_S1_V3 S1_V3_!8188 E2_!8185)))
      (or $x201
      (= (ite MW_S1_V2 S1_V2_!8173 V2_0) (ite MW_S1_V2 S1_V2_!8189 V2_0)))
      (or $x203
      (= (ite MW_S1_V5 S1_V5_!8174 V5_0) (ite MW_S1_V5 S1_V5_!8190 V5_0)))
      (or $x205
      (= (ite MW_S1_V4 S1_V4_!8175 V4_0) (ite MW_S1_V4 S1_V4_!8191 V4_0)))
      (or $x207
      (= (ite MW_S1_V6 S1_V6_!8176 V6_0) (ite MW_S1_V6 S1_V6_!8192 V6_0))))))
    (let (($x62817 (or $x207 (= (ite MW_S1_V6 S1_V6_!8176 V6_0) V6_0))))
    (let (($x63630 (or $x205 (= (ite MW_S1_V4 S1_V4_!8175 V4_0) V4_0))))
    (let (($x63991 (or $x203 (= (ite MW_S1_V5 S1_V5_!8174 V5_0) V5_0))))
    (let (($x62740 (or $x201 (= (ite MW_S1_V2 S1_V2_!8173 V2_0) V2_0))))
    (let
    (($x62396
      (and (or (not R_S1_V1) (= ?x60175 (+ (- 1) E1_!8186)))
      (or (not R_S1_V3) (= E2_!8177 E2_!8185)) $x62740 $x63991 $x63630
      $x62817)))
    (let
    (($x64035
      (and (or (not R_S1_V1) (= ?x60175 (+ (- 1) E1_!8168)))
      (or (not R_S1_V3) $x63623) $x62740 $x63991 $x63630 $x62817)))
    (let
    (($x64356
      (and (or $x64446 (= S1_V1_!8171 S1_V1_!8178))
      (or $x60118 (= S1_V1_!8171 S1_V1_!8187))
      (or $x63589 (= S1_V1_!8171 S1_V1_!8193))
      (or (not $x62396) (= S1_V1_!8178 S1_V1_!8187))
      (or (not $x63450) (= S1_V1_!8178 S1_V1_!8193))
      (or $x64345 (= S1_V1_!8187 S1_V1_!8193))
      (or (not $x64035) (= S1_V3_!8179 S1_V3_!8172))
      (or (not $x62396) (= S1_V3_!8179 S1_V3_!8188))
      (or (not $x63450) (= S1_V3_!8179 S1_V3_!8194))
      (or (not $x63213) (= S1_V3_!8188 S1_V3_!8172))
      (or $x64345 (= S1_V3_!8188 S1_V3_!8194))
      (or (not $x61018) (= S1_V3_!8194 S1_V3_!8172))
      (or $x64446 (= S1_V2_!8173 S1_V2_!8180))
      (or $x60118 (= S1_V2_!8173 S1_V2_!8189))
      (or $x63589 (= S1_V2_!8173 S1_V2_!8195))
      (or $x62382 (= S1_V2_!8189 S1_V2_!8180))
      (or $x64345 (= S1_V2_!8189 S1_V2_!8195))
      (or $x63208 (= S1_V2_!8195 S1_V2_!8180)) 
      (= E1_!8184 E1_!8168) 
      (= E1_!8184 E1_!8186) $x62955 
      (or $x64446 (= S1_V5_!8174 S1_V5_!8181))
      (or $x60118 (= S1_V5_!8174 S1_V5_!8190))
      (or $x63589 (= S1_V5_!8174 S1_V5_!8196))
      (or $x62382 (= S1_V5_!8190 S1_V5_!8181))
      (or $x64345 (= S1_V5_!8190 S1_V5_!8196))
      (or $x63208 (= S1_V5_!8196 S1_V5_!8181)) 
      (= E2_!8170 E2_!8169) 
      (or (not $x63453) (= E2_!8177 E2_!8169)) 
      (or (not $x63453) $x63623) 
      (= E2_!8185 E2_!8169) $x62350 
      (or (not $x64630) $x59863) 
      (or $x64446 (= S1_V4_!8175 S1_V4_!8182))
      (or $x60118 (= S1_V4_!8175 S1_V4_!8191))
      (or $x63589 (= S1_V4_!8175 S1_V4_!8197))
      (or $x62382 (= S1_V4_!8191 S1_V4_!8182))
      (or $x64345 (= S1_V4_!8191 S1_V4_!8197))
      (or $x63208 (= S1_V4_!8197 S1_V4_!8182))
      (or $x64446 (= S1_V6_!8176 S1_V6_!8183))
      (or (not $x63213) (= S1_V6_!8192 S1_V6_!8176))
      (or $x62382 (= S1_V6_!8192 S1_V6_!8183))
      (or (not $x61018) (= S1_V6_!8198 S1_V6_!8176))
      (or $x63208 (= S1_V6_!8198 S1_V6_!8183))
      (or (not $x63352) (= S1_V6_!8198 S1_V6_!8192))
      (or (not MW_S1_V1) W_S1_V1) 
      (or (not MW_S1_V3) W_S1_V3) 
      (not MW_S1_V2) (not MW_S1_V4) 
      (or (not MW_S1_V6) W_S1_V6))))
    (or (not $x64356) (not $x63128) $x63950)))))))))))))))))))))))))))))))))))))))))))))))))))))))))
 (let (($x119 (not R_E1_V5)))
 (let (($x40 (and W_S1_V6 R_S1_V6)))
 (let (($x32 (and W_S1_V3 R_S1_V3)))
 (let (($x30 (and W_S1_V1 R_S1_V1)))
 (let (($x134 (not R_E2_V5)))
 (let (($x59788 (not W_S1_V1)))
 (let (($x63884 (or DISJ_W_S1_R_S1 $x59788)))
 (let (($x59799 (not W_S1_V4)))
 (let (($x59796 (not W_S1_V2)))
 (let (($x115 (not R_E1_V3)))
 (let (($x113 (not R_E1_V1)))
 (let (($x130 (not R_E2_V3)))
 (let (($x128 (not R_E2_V1)))
 (and DISJ_W_S1_R_E2 DISJ_W_S1_R_E1 $x128 $x130 $x113 $x115 $x59796 $x59799
 $x63884 W_S1_V5 $x134 (= DISJ_W_S1_R_S1 (not (or $x30 $x32 R_S1_V5 $x40)))
 $x119 $x63605 (not (and W_S1_V6 R_E2_V6)) 
 (not (and W_S1_V6 R_E1_V6))))))))))))))))))
(assert (not DISJ_W_S1_R_S1))
(assert W_S1_V3)
(check-sat)
(exit)

